============================[ Problem Statistics ]=============================|                                                                             ||  Number of variables:          4242                                         ||  Number of clauses:           10267                                         ||  Parse time:                   0.65 s                                       ||                                                                             |============================[ Search Statistics ]==============================| Conflicts |          ORIGINAL         |          LEARNT          | Progress ||           |    Vars  Clauses Literals |    Limit  Clauses Lit/Cl |          |===============================================================================|       100 |    1591     6472  1044353 |     2373      100     53 | 62.501 % ||       250 |    1591     6472  1044353 |     2610      250     75 | 62.495 % |===============================================================================restarts              : 3conflicts             : 358            (364 /sec)decisions             : 625            (0.00 % random) (635 /sec)propagations          : 11972          (12167 /sec)conflict literals     : 29182          (94.61 % deleted)CPU time              : 0.984 sSATISFIABLE